Version identifier: 22.1.0.0 | 2022-03-09 | 1a383f8ce
CPXPARAM_Threads                                 1
CPXPARAM_MIP_Strategy_VariableSelect             3
CPXPARAM_TimeLimit                               599.99054862800006
Tried aggregator 1 time.
MIP Presolve eliminated 17 rows and 383 columns.
MIP Presolve modified 1 coefficients.
Reduced MIP has 2676 rows, 4213 columns, and 42259 nonzeros.
Reduced MIP has 4213 binaries, 0 generals, 0 SOSs, and 0 indicators.
Presolve time = 0.04 sec. (21.38 ticks)
Probing time = 0.00 sec. (3.15 ticks)
Tried aggregator 1 time.
Detecting symmetries...
Reduced MIP has 2676 rows, 4213 columns, and 42259 nonzeros.
Reduced MIP has 4213 binaries, 0 generals, 0 SOSs, and 0 indicators.
Presolve time = 0.03 sec. (26.18 ticks)
Probing time = 0.00 sec. (3.15 ticks)
Clique table members: 1904.
MIP emphasis: balance optimality and feasibility.
MIP search method: dynamic search.
Parallel mode: none, using 1 thread.
Root relaxation solution time = 0.04 sec. (34.22 ticks)

        Nodes                                         Cuts/
   Node  Left     Objective  IInf  Best Integer    Best Bound    ItCnt     Gap

      0     0    infeasible                                        717         

Root node processing (before b&c):
  Real time             =    0.24 sec. (158.61 ticks)
Sequential b&c:
  Real time             =    0.00 sec. (0.00 ticks)
                          ------------
Total (root+branch&cut) =    0.24 sec. (158.61 ticks)
Primal:	382
Dual:	382
Status:	Optimal
Time:	0.288578
Sequence:
	0
